0 3 9 7 7 7 -1 7 6 9 5 -1 
3 6 9 1 3 -1 8 9 9 2 7 7 -1 
9 0 7 -1 8 6 9 0 9 1 -1 
8 5 6 0 2 8 4 -1 4 4 -1 
0 5 5 9 -1 2 -1 7 3 5 0 2 5 -1 
9 3 6 4 8 8 4 0 4 3 -1 
0 0 6 9 5 3 3 0 5 -1 6 9 9 -1 
8 5 9 5 2 8 -1 2 3 2 9 5 -1 
8 4 9 6 9 9 8 5 1 -1 -1 
7 -1 2 5 3 4 2 4 9 9 2 -1 
2 8 2 7 3 -1 8 6 7 -1 
2 3 5 5 3 2 5 8 1 4 -1 
9 4 1 2 -1 1 -1 7 8 5 -1 
1 5 8 5 2 9 1 7 1 -1 
3 1 -1 -1 3 4 8 1 7 8 2 -1 
3 3 1 1 4 -1 9 0 6 2 8 8 0 -1 
2 5 3 1 5 7 8 0 7 7 3 0 -1 
6 8 6 5 9 1 0 2 0 7 -1 
5 6 8 4 7 4 0 0 7 4 1 -1 -1 
6 6 7 2 -1 4 -1 7 0 -1 7 7 -1 
